 $CONTRL SCFTYP=UHF RUNTYP=EDA dfttyp=B3LYP ispher=1 icharg=0 mult=1 $END
 $SYSTEM  mwords=150 memddi=150 $END
 $BASIS gbasis=accd $END
 $LMOEDA MATOM(1)=5 5 MCHARG(1)=0 0 MMULT(1)=2 -2 edatyp=gks $end
 $scf DIIS=.TRUE. ETHRSH=2.0 SWDIIS=0.005 $end
 $data
 EDA calculation with XEDA 1.0
 c1
C   6    0.0000071354    0.9253276572   -1.2613602404
C   6    0.0000071354    0.9253276572    0.0791397596
H   1   -0.0003079788    1.8646967326    0.6316338147
H   1   -0.0003271107   -0.0007327328   -1.8313170830
H   1   -0.0003090351    1.8567147887   -1.8221826290
C   6    0.0000071354   -0.2866606543    0.8845535493
C   6    0.0000071354   -1.5213394149    0.3622732432
H   1    0.0002691845   -1.6845989945   -0.7129023197
H   1    0.0001484769   -2.4013352145    1.0007176124
H   1    0.0001866221   -0.1426332781    1.9647943200
 $end
