 $CONTRL SCFTYP=UHF RUNTYP=EDA dfttyp=B3LYP ispher=1 icharg=0 mult=1 $END
 $SYSTEM  mwords=150 memddi=150 $END
 $BASIS gbasis=accd $END
 $LMOEDA MATOM(1)=5 5 MCHARG(1)=0 0 MMULT(1)=2 -2 edatyp=gks $end
 $scf DIIS=.TRUE. ETHRSH=2.0 SWDIIS=0.005 $end
 $data
 EDA calculation with XEDA 1.0
 c1
C   6   -0.2045567175    0.8784251853   -1.3319391758
C   6   -0.2045567175    0.8784251853    0.0085608242
H   1   -0.2048718317    1.8177942606    0.5610548793
H   1   -0.2048909636   -0.0476352047   -1.9018960184
H   1   -0.2048728880    1.8098123167   -1.8927615643
C   6   -0.2045567175   -0.3335631262    0.8139746140
C   6    0.5862371261   -1.3869476622    0.5645062263
H   1    1.2835152909   -1.3902919703   -0.2700285102
H   1    0.5547396390   -2.2741320460    1.1921331995
H   1   -0.8969789013   -0.3482365342    1.6554021215
 $end
