 $CONTRL SCFTYP=UHF RUNTYP=EDA dfttyp=B3LYP ispher=1 icharg=0 mult=1 $END
 $SYSTEM  mwords=150 memddi=150 $END
 $BASIS gbasis=accd $END
 $LMOEDA MATOM(1)=5 5 MCHARG(1)=0 0 MMULT(1)=2 -2 edatyp=gks $end
 $scf DIIS=.TRUE. ETHRSH=2.0 SWDIIS=0.005 $end
 $data
 EDA calculation with XEDA 1.0
 c1
C   6   -0.2132847612    0.8733785532   -1.3395333580
C   6   -0.2132847612    0.8733785532    0.0009666420
H   1   -0.2135998754    1.8127476286    0.5534606971
H   1   -0.2136190073   -0.0526818368   -1.9094902006
H   1   -0.2136009318    1.8047656846   -1.9003557465
C   6   -0.2132847612   -0.3386097583    0.8063804318
C   6    0.6112503648   -1.3724862538    0.5862677832
H   1    1.3382635566   -1.3586296487   -0.2223829841
H   1    0.5784002364   -2.2604477523    1.2127253526
H   1   -0.9352620161   -0.3703646165    1.6221037381
 $end
