 $CONTRL SCFTYP=UHF RUNTYP=EDA dfttyp=B3LYP ispher=1 icharg=0 mult=1 $END
 $SYSTEM  mwords=150 memddi=150 $END
 $BASIS gbasis=accd $END
 $LMOEDA MATOM(1)=5 5 MCHARG(1)=0 0 MMULT(1)=2 -2 edatyp=gks $end
 $scf DIIS=.TRUE. ETHRSH=2.0 SWDIIS=0.005 $end
 $data
 EDA calculation with XEDA 1.0
 c1
C   6   -0.2216067711    0.8681260107   -1.3474373947
C   6   -0.2216067711    0.8681260107   -0.0069373947
H   1   -0.2219218853    1.8074950861    0.5455566605
H   1   -0.2219410172   -0.0579343793   -1.9173942372
H   1   -0.2219229416    1.7995131421   -1.9082597832
C   6   -0.2216067711   -0.3438623008    0.7984763951
C   6    0.6351000880   -1.3574347361    0.6089173377
H   1    1.3904643959   -1.3256757217   -0.1727938476
H   1    0.6009598502   -2.2462052653    1.2341574760
H   1   -0.9717647721   -0.3933958745    1.5874462542
 $end
