 $CONTRL SCFTYP=UHF RUNTYP=EDA dfttyp=B3LYP ispher=1 icharg=0 mult=1 $END
 $SYSTEM  mwords=150 memddi=150 $END
 $BASIS gbasis=accd $END
 $LMOEDA MATOM(1)=5 5 MCHARG(1)=0 0 MMULT(1)=2 -2 edatyp=gks $end
 $scf DIIS=.TRUE. ETHRSH=2.0 SWDIIS=0.005 $end
 $data
 EDA calculation with XEDA 1.0
 c1
C   6   -0.2295069055    0.8626775562   -1.3556362400
C   6   -0.2295069055    0.8626775562   -0.0151362400
H   1   -0.2298220197    1.8020466316    0.5373578151
H   1   -0.2298411516   -0.0633828337   -1.9255930826
H   1   -0.2298230761    1.7940646877   -1.9164586285
C   6   -0.2295069055   -0.3493107553    0.7902775498
C   6    0.6577408963   -1.3418217605    0.6324117752
H   1    1.4400184414   -1.2914929191   -0.1213554967
H   1    0.6223755371   -2.2314316964    1.2563887726
H   1   -1.0064176845   -0.4172864668    1.5514956422
 $end
