 $CONTRL SCFTYP=UHF RUNTYP=EDA dfttyp=B3LYP ispher=1 icharg=0 mult=1 $END
 $SYSTEM  mwords=150 memddi=150 $END
 $BASIS gbasis=accd $END
 $LMOEDA MATOM(1)=5 5 MCHARG(1)=0 0 MMULT(1)=2 -2 edatyp=gks $end
 $scf DIIS=.TRUE. ETHRSH=2.0 SWDIIS=0.005 $end
 $data
 EDA calculation with XEDA 1.0
 c1
C   6   -0.2369701263    0.8570435613   -1.3641142871
C   6   -0.2369701263    0.8570435613   -0.0236142871
H   1   -0.2372852405    1.7964126366    0.5288797680
H   1   -0.2373043724   -0.0690168287   -1.9340711297
H   1   -0.2372862968    1.7884306927   -1.9249366756
C   6   -0.2369701263   -0.3549447502    0.7817995027
C   6    0.6791296917   -1.3256770472    0.6567063727
H   1    1.4868313642   -1.2561463098   -0.0681658469
H   1    0.6426065311   -2.2161551680    1.2793769236
H   1   -1.0391547892   -0.4419909164    1.5143203361
 $end
