 $CONTRL SCFTYP=UHF RUNTYP=EDA dfttyp=B3LYP ispher=1 icharg=0 mult=1 $END
 $SYSTEM  mwords=150 memddi=150 $END
 $BASIS gbasis=accd $END
 $LMOEDA MATOM(1)=5 5 MCHARG(1)=0 0 MMULT(1)=2 -2 edatyp=gks $end
 $scf DIIS=.TRUE. ETHRSH=2.0 SWDIIS=0.005 $end
 $data
 EDA calculation with XEDA 1.0
 c1
C   6   -0.2505298587    0.8452621811   -1.3818429320
C   6   -0.2505298587    0.8452621811   -0.0413429320
H   1   -0.2508449729    1.7846312565    0.5111511231
H   1   -0.2508641048   -0.0807982089   -1.9517997746
H   1   -0.2508460293    1.7766493125   -1.9426653205
C   6   -0.2505298587   -0.3667261304    0.7640708578
C   6    0.7179908455   -1.2919162907    0.7075096277
H   1    1.5718827852   -1.1822328954    0.0430592096
H   1    0.6793627253   -2.1842104535    1.3274473951
H   1   -1.0986360739   -0.4936518223    1.4365808997
 $end
