 $CONTRL SCFTYP=UHF RUNTYP=EDA dfttyp=B3LYP ispher=1 icharg=0 mult=1 $END
 $SYSTEM  mwords=150 memddi=150 $END
 $BASIS gbasis=accd $END
 $LMOEDA MATOM(1)=5 5 MCHARG(1)=0 0 MMULT(1)=2 -2 edatyp=gks $end
 $scf DIIS=.TRUE. ETHRSH=2.0 SWDIIS=0.005 $end
 $data
 EDA calculation with XEDA 1.0
 c1
C   6   -0.2718401763    0.8199659192   -1.4199087985
C   6   -0.2718401763    0.8199659192   -0.0794087985
H   1   -0.2721552905    1.7593349945    0.4730852566
H   1   -0.2721744224   -0.1060944708   -1.9898656411
H   1   -0.2721563469    1.7513530506   -1.9807311870
C   6   -0.2718401763   -0.3920223924    0.7260049913
C   6    0.7790663616   -1.2194266233    0.8165922270
H   1    1.7055408586   -1.0235332457    0.2818707658
H   1    0.7371240547   -2.1156222161    1.4306591145
H   1   -1.1921253275   -0.6045782024    1.2696586569
 $end
