 $CONTRL SCFTYP=UHF RUNTYP=EDA dfttyp=B3LYP ispher=1 icharg=0 mult=1 $END
 $SYSTEM  mwords=150 memddi=150 $END
 $BASIS gbasis=accd $END
 $LMOEDA MATOM(1)=5 5 MCHARG(1)=0 0 MMULT(1)=2 -2 edatyp=gks $end
 $scf DIIS=.TRUE. ETHRSH=2.0 SWDIIS=0.005 $end
 $data
 EDA calculation with XEDA 1.0
 c1
C   6   -0.2848902207    0.7930058389   -1.4604783822
C   6   -0.2848902207    0.7930058389   -0.1199783822
H   1   -0.2852053349    1.7323749143    0.4325156729
H   1   -0.2852244668   -0.1330545511   -2.0304352247
H   1   -0.2852063912    1.7243929703   -2.0213007707
C   6   -0.2848902207   -0.4189824726    0.6854354076
C   6    0.8164708875   -1.1421682956    0.9328507159
H   1    1.7873774830   -0.8543987812    0.5363846525
H   1    0.7724887898   -2.0425245719    1.5406565983
H   1   -1.2493919091   -0.7228045729    1.0917513738
 $end
