 $CONTRL SCFTYP=UHF RUNTYP=EDA dfttyp=B3LYP ispher=1 icharg=0 mult=1 $END
 $SYSTEM  mwords=150 memddi=150 $END
 $BASIS gbasis=accd $END
 $LMOEDA MATOM(1)=5 5 MCHARG(1)=0 0 MMULT(1)=2 -2 edatyp=gks $end
 $scf DIIS=.TRUE. ETHRSH=2.0 SWDIIS=0.005 $end
 $data
 EDA calculation with XEDA 1.0
 c1
C   6   -0.2892834728    0.7652011088   -1.5023189967
C   6   -0.2892834728    0.7652011088   -0.1618189967
H   1   -0.2895985870    1.7045701842    0.3906750584
H   1   -0.2896177189   -0.1608592812   -2.0722758392
H   1   -0.2895996433    1.6965882402   -2.0631413852
C   6   -0.2892834728   -0.4467872027    0.6435947931
C   6    0.8290679058   -1.0624887628    1.0527526391
H   1    1.8149060942   -0.6799685669    0.7988675942
H   1    0.7843823910   -1.9671385560    1.6540976286
H   1   -1.2686958028   -0.8447386854    0.9082646730
 $end
