 $CONTRL SCFTYP=UHF RUNTYP=EDA dfttyp=B3LYP ispher=1 icharg=0 mult=1 $END
 $SYSTEM  mwords=150 memddi=150 $END
 $BASIS gbasis=accd $END
 $LMOEDA MATOM(1)=5 5 MCHARG(1)=0 0 MMULT(1)=2 -2 edatyp=gks $end
 $scf DIIS=.TRUE. ETHRSH=2.0 SWDIIS=0.005 $end
 $data
 EDA calculation with XEDA 1.0
 c1
C   6   -0.2848864459    0.7373965615   -1.5441593361
C   6   -0.2848864459    0.7373965615   -0.2036593361
H   1   -0.2852015601    1.6767656369    0.3488347190
H   1   -0.2852206920   -0.1886638285   -2.1141161787
H   1   -0.2852026165    1.6687836929   -2.1049817246
C   6   -0.2848864459   -0.4745917500    0.6017544537
C   6    0.8164746623   -0.9828090472    1.1726548374
H   1    1.7872902491   -0.5055425768    1.0613441795
H   1    0.7724434772   -1.8917547342    1.7675353572
H   1   -1.2494504694   -0.9666756334    0.7247737051
 $end
