 $CONTRL SCFTYP=UHF RUNTYP=EDA dfttyp=B3LYP ispher=1 icharg=0 mult=1 $END
 $SYSTEM  mwords=150 memddi=150 $END
 $BASIS gbasis=accd $END
 $LMOEDA MATOM(1)=5 5 MCHARG(1)=0 0 MMULT(1)=2 -2 edatyp=gks $end
 $scf DIIS=.TRUE. ETHRSH=2.0 SWDIIS=0.005 $end
 $data
 EDA calculation with XEDA 1.0
 c1
C   6   -0.0502293738    0.9228940219   -1.2650223798
C   6   -0.0502293738    0.9228940219    0.0754776202
H   1   -0.0505444880    1.8622630973    0.6279716753
H   1   -0.0505636199   -0.0031663681   -1.8349792224
H   1   -0.0505455443    1.8542811534   -1.8258447683
C   6   -0.0502293738   -0.2890942896    0.8808914100
C   6    0.1439703051   -1.5143693956    0.3727617423
H   1    0.3154173779   -1.6693143722   -0.6899019888
H   1    0.1363499411   -2.3947273491    1.0106611418
H   1   -0.2201257802   -0.1532850489    1.9487655136
 $end
