 $CONTRL SCFTYP=UHF RUNTYP=EDA dfttyp=B3LYP ispher=1 icharg=0 mult=1 $END
 $SYSTEM  mwords=150 memddi=150 $END
 $BASIS gbasis=accd $END
 $LMOEDA MATOM(1)=5 5 MCHARG(1)=0 0 MMULT(1)=2 -2 edatyp=gks $end
 $scf DIIS=.TRUE. ETHRSH=2.0 SWDIIS=0.005 $end
 $data
 EDA calculation with XEDA 1.0
 c1
C   6   -0.2718327415    0.7104370241   -1.5847281030
C   6   -0.2718327415    0.7104370241   -0.2442281030
H   1   -0.2721478557    1.6498060994    0.3082659522
H   1   -0.2721669876   -0.2156233659   -2.1546849455
H   1   -0.2721489120    1.6418241555   -2.1455504915
C   6   -0.2718327415   -0.5015512874    0.5611856868
C   6    0.7790737964   -0.9055501767    1.2889141431
H   1    1.7053690413   -0.3364206562    1.3158391901
H   1    0.7370348063   -1.8186636059    1.8775230360
H   1   -1.1922406687   -1.0849104247    0.5468537504
 $end
