 $CONTRL SCFTYP=UHF RUNTYP=EDA dfttyp=B3LYP ispher=1 icharg=0 mult=1 $END
 $SYSTEM  mwords=150 memddi=150 $END
 $BASIS gbasis=accd $END
 $LMOEDA MATOM(1)=5 5 MCHARG(1)=0 0 MMULT(1)=2 -2 edatyp=gks $end
 $scf DIIS=.TRUE. ETHRSH=2.0 SWDIIS=0.005 $end
 $data
 EDA calculation with XEDA 1.0
 c1
C   6   -0.2505189897    0.6851416484   -1.6227926358
C   6   -0.2505189897    0.6851416484   -0.2822926358
H   1   -0.2508341039    1.6245107238    0.2702014194
H   1   -0.2508532358   -0.2409187416   -2.1927494783
H   1   -0.2508351602    1.6165287798   -2.1836150243
C   6   -0.2505189897   -0.5268466631    0.5231211540
C   6    0.7180017145   -0.8330596230    1.3979980761
H   1    1.5716316052   -0.1777414891    1.5546199239
H   1    0.6792322528   -1.7500860079    1.9807187451
H   1   -1.0988046916   -1.1958505549    0.3799108165
 $end
