 $CONTRL SCFTYP=UHF RUNTYP=EDA dfttyp=B3LYP ispher=1 icharg=0 mult=1 $END
 $SYSTEM  mwords=150 memddi=150 $END
 $BASIS gbasis=accd $END
 $LMOEDA MATOM(1)=5 5 MCHARG(1)=0 0 MMULT(1)=2 -2 edatyp=gks $end
 $scf DIIS=.TRUE. ETHRSH=2.0 SWDIIS=0.005 $end
 $data
 EDA calculation with XEDA 1.0
 c1
C   6   -0.2215927981    0.6622790218   -1.6571963629
C   6   -0.2215927981    0.6622790218   -0.3166963629
H   1   -0.2219079123    1.6016480971    0.2357976922
H   1   -0.2219270442   -0.2637813682   -2.2271532055
H   1   -0.2219089686    1.5936661532   -2.2180187515
C   6   -0.2215927981   -0.5497092898    0.4887174268
C   6    0.6351140609   -0.7675399747    1.4965921762
H   1    1.3901414851   -0.0343264618    1.7704311492
H   1    0.6007921181   -1.6881056360    2.0739869351
H   1   -0.9719815428   -1.2961251642    0.2290173802
 $end
