 $CONTRL SCFTYP=UHF RUNTYP=EDA dfttyp=B3LYP ispher=1 icharg=0 mult=1 $END
 $SYSTEM  mwords=150 memddi=150 $END
 $BASIS gbasis=accd $END
 $LMOEDA MATOM(1)=5 5 MCHARG(1)=0 0 MMULT(1)=2 -2 edatyp=gks $end
 $scf DIIS=.TRUE. ETHRSH=2.0 SWDIIS=0.005 $end
 $data
 EDA calculation with XEDA 1.0
 c1
C   6   -0.1859330744    0.6425438134   -1.6868939447
C   6   -0.1859330744    0.6425438134   -0.3463939447
H   1   -0.1862481886    1.5819128888    0.2061001105
H   1   -0.1862673205   -0.2835165766   -2.2568507872
H   1   -0.1862492450    1.5739309448   -2.2477163332
C   6   -0.1859330744   -0.5694444981    0.4590198451
C   6    0.5329293350   -0.7109820134    1.5817007116
H   1    1.1664131665    0.0894668329    1.9567155511
H   1    0.5040977660   -1.6346057322    2.1544936992
H   1   -0.8156246797   -1.3826874594    0.0987582621
 $end
