 $CONTRL SCFTYP=UHF RUNTYP=EDA dfttyp=B3LYP ispher=1 icharg=0 mult=1 $END
 $SYSTEM  mwords=150 memddi=150 $END
 $BASIS gbasis=accd $END
 $LMOEDA MATOM(1)=5 5 MCHARG(1)=0 0 MMULT(1)=2 -2 edatyp=gks $end
 $scf DIIS=.TRUE. ETHRSH=2.0 SWDIIS=0.005 $end
 $data
 EDA calculation with XEDA 1.0
 c1
C   6   -0.1446233213    0.6265356677   -1.7109830349
C   6   -0.1446233213    0.6265356677   -0.3704830349
H   1   -0.1449384355    1.5659047431    0.1820110202
H   1   -0.1449575674   -0.2995247223   -2.2809398775
H   1   -0.1449394919    1.5579227991   -2.2718054235
C   6   -0.1446233213   -0.5854526438    0.4349307548
C   6    0.4145523680   -0.6651042240    1.6507377026
H   1    0.9072445211    0.1898769981    2.1078129724
H   1    0.3920872053   -1.5912118642    2.2197928801
H   1   -0.6344849263   -1.4529072889   -0.0069086805
 $end
