 $CONTRL SCFTYP=UHF RUNTYP=EDA dfttyp=B3LYP ispher=1 icharg=0 mult=1 $END
 $SYSTEM  mwords=150 memddi=150 $END
 $BASIS gbasis=accd $END
 $LMOEDA MATOM(1)=5 5 MCHARG(1)=0 0 MMULT(1)=2 -2 edatyp=gks $end
 $scf DIIS=.TRUE. ETHRSH=2.0 SWDIIS=0.005 $end
 $data
 EDA calculation with XEDA 1.0
 c1
C   6   -0.0989187147    0.6147409840   -1.7287316990
C   6   -0.0989187147    0.6147409840   -0.3882316990
H   1   -0.0992338289    1.5541100594    0.1642623562
H   1   -0.0992529608   -0.3113194060   -2.2986885415
H   1   -0.0992348853    1.5461281154   -2.2895540875
C   6   -0.0989187147   -0.5972473275    0.4171820908
C   6    0.2835799841   -0.6313005799    1.7016054951
H   1    0.6205102570    0.2638531219    2.2191323942
H   1    0.2681638204   -1.5592425327    2.2679003954
H   1   -0.4340661225   -1.5046510588   -0.0847728109
 $end
