 $CONTRL SCFTYP=UHF RUNTYP=EDA dfttyp=B3LYP ispher=1 icharg=0 mult=1 $END
 $SYSTEM  mwords=150 memddi=150 $END
 $BASIS gbasis=accd $END
 $LMOEDA MATOM(1)=5 5 MCHARG(1)=0 0 MMULT(1)=2 -2 edatyp=gks $end
 $scf DIIS=.TRUE. ETHRSH=2.0 SWDIIS=0.005 $end
 $data
 EDA calculation with XEDA 1.0
 c1
C   6   -0.0502079660    0.6075181379   -1.7396006525
C   6   -0.0502079660    0.6075181379   -0.3991006525
H   1   -0.0505230801    1.5468872133    0.1533934026
H   1   -0.0505422121   -0.3185422521   -2.3095574951
H   1   -0.0505241365    1.5389052693   -2.3004230410
C   6   -0.0502079660   -0.6044701736    0.4063131373
C   6    0.1439917129   -0.6105981878    1.7327584969
H   1    0.3149226499    0.3091474773    2.2872914323
H   1    0.1360929606   -1.5396691096    2.2973545224
H   1   -0.2204578921   -1.5363465609   -0.1324682669
 $end
