 $CONTRL SCFTYP=UHF RUNTYP=EDA dfttyp=B3LYP ispher=1 icharg=0 mult=1 $END
 $SYSTEM  mwords=150 memddi=150 $END
 $BASIS gbasis=accd $END
 $LMOEDA MATOM(1)=5 5 MCHARG(1)=0 0 MMULT(1)=2 -2 edatyp=gks $end
 $scf DIIS=.TRUE. ETHRSH=2.0 SWDIIS=0.005 $end
 $data
 EDA calculation with XEDA 1.0
 c1
C   6    0.0000288735    0.6050865918   -1.7432596480
C   6    0.0000288735    0.6050865918   -0.4027596480
H   1   -0.0002862407    1.5444556672    0.1497344071
H   1   -0.0003053726   -0.3209737981   -2.3132164905
H   1   -0.0002872971    1.5364737233   -2.3040820365
C   6    0.0000288735   -0.6069017197    0.4026541418
C   6    0.0000288735   -0.6036260793    1.7432501399
H   1   -0.0002331755    0.3243838180    2.3102191089
H   1   -0.0001124680   -1.5330863234    2.3072603124
H   1   -0.0001506132   -1.5470307432   -0.1485458463
 $end
