 $CONTRL SCFTYP=UHF RUNTYP=EDA dfttyp=B3LYP ispher=1 icharg=0 mult=1 $END
 $SYSTEM  mwords=150 memddi=150 $END
 $BASIS gbasis=accd $END
 $LMOEDA MATOM(1)=5 5 MCHARG(1)=0 0 MMULT(1)=2 -2 edatyp=gks $end
 $scf DIIS=.TRUE. ETHRSH=2.0 SWDIIS=0.005 $end
 $data
 EDA calculation with XEDA 1.0
 c1
C   6   -0.0989391418    0.9156691501   -1.2758943817
C   6   -0.0989391418    0.9156691501    0.0646056183
H   1   -0.0992542560    1.8550382254    0.6170996734
H   1   -0.0992733879   -0.0103912399   -1.8458512243
H   1   -0.0992553124    1.8470562815   -1.8367167702
C   6   -0.0989391418   -0.2963191615    0.8700194081
C   6    0.2835595570   -1.4936690293    0.4039116958
H   1    0.6209823210   -1.6239732023   -0.6216725040
H   1    0.2684090283   -2.3751296087    1.0401518615
H   1   -0.4337492250   -0.1849491242    1.9011173486
 $end
