 $CONTRL SCFTYP=UHF RUNTYP=EDA dfttyp=B3LYP ispher=1 icharg=0 mult=1 $END
 $SYSTEM  mwords=150 memddi=150 $END
 $BASIS gbasis=accd $END
 $LMOEDA MATOM(1)=5 5 MCHARG(1)=0 0 MMULT(1)=2 -2 edatyp=gks $end
 $scf DIIS=.TRUE. ETHRSH=2.0 SWDIIS=0.005 $end
 $data
 EDA calculation with XEDA 1.0
 c1
C   6   -0.1446421470    0.9038725657   -1.2936459059
C   6   -0.1446421470    0.9038725657    0.0468540941
H   1   -0.1449572612    1.8432416410    0.5993481492
H   1   -0.1449763931   -0.0221878243   -1.8636027485
H   1   -0.1449583176    1.8352596971   -1.8544682945
C   6   -0.1446421470   -0.3081157458    0.8522678838
C   6    0.4145335423   -1.4598672859    0.4547766280
H   1    0.9076795776   -1.5499531533   -0.5102869835
H   1    0.3923131902   -2.3431374607    1.0882937109
H   1   -0.6341928720   -0.2366634071    1.8232975904
 $end
