 $CONTRL SCFTYP=UHF RUNTYP=EDA dfttyp=B3LYP ispher=1 icharg=0 mult=1 $END
 $SYSTEM  mwords=150 memddi=150 $END
 $BASIS gbasis=accd $END
 $LMOEDA MATOM(1)=5 5 MCHARG(1)=0 0 MMULT(1)=2 -2 edatyp=gks $end
 $scf DIIS=.TRUE. ETHRSH=2.0 SWDIIS=0.005 $end
 $data
 EDA calculation with XEDA 1.0
 c1
C   6   -0.1554327328    0.9002481799   -1.2990998891
C   6   -0.1554327328    0.9002481799    0.0414001109
H   1   -0.1557478470    1.8396172552    0.5938941661
H   1   -0.1557669789   -0.0258122101   -1.8690567316
H   1   -0.1557489034    1.8316353113   -1.8599222776
C   6   -0.1554327328   -0.3117401316    0.8468139007
C   6    0.4454570249   -1.4494817678    0.4704047769
H   1    0.9753685073   -1.5272123516   -0.4760665788
H   1    0.4215667215   -2.3333088128    1.1030838803
H   1   -0.6815192166   -0.2525534627    1.7993862023
 $end
