 $CONTRL SCFTYP=UHF RUNTYP=EDA dfttyp=B3LYP ispher=1 icharg=0 mult=1 $END
 $SYSTEM  mwords=150 memddi=150 $END
 $BASIS gbasis=accd $END
 $LMOEDA MATOM(1)=5 5 MCHARG(1)=0 0 MMULT(1)=2 -2 edatyp=gks $end
 $scf DIIS=.TRUE. ETHRSH=2.0 SWDIIS=0.005 $end
 $data
 EDA calculation with XEDA 1.0
 c1
C   6   -0.1659274093    0.8963667358   -1.3049406941
C   6   -0.1659274093    0.8963667358    0.0355593059
H   1   -0.1662425235    1.8357358111    0.5880533610
H   1   -0.1662616554   -0.0296936542   -1.8748975366
H   1   -0.1662435798    1.8277538672   -1.8657630826
C   6   -0.1659274093   -0.3156215758    0.8409730957
C   6    0.4755325890   -1.4383595750    0.4871414752
H   1    1.0412008020   -1.5028590378   -0.4394196626
H   1    0.4500178108   -2.3227832764    1.1189227290
H   1   -0.7275482163   -0.2695709542    1.7737782465
 $end
