 $CONTRL SCFTYP=UHF RUNTYP=EDA dfttyp=B3LYP ispher=1 icharg=0 mult=1 $END
 $SYSTEM  mwords=150 memddi=150 $END
 $BASIS gbasis=accd $END
 $LMOEDA MATOM(1)=5 5 MCHARG(1)=0 0 MMULT(1)=2 -2 edatyp=gks $end
 $scf DIIS=.TRUE. ETHRSH=2.0 SWDIIS=0.005 $end
 $data
 EDA calculation with XEDA 1.0
 c1
C   6   -0.1761061992    0.8922356219   -1.3111572027
C   6   -0.1761061992    0.8922356219    0.0293427973
H   1   -0.1764213134    1.8316046972    0.5818368524
H   1   -0.1764404453   -0.0338247681   -1.8811140452
H   1   -0.1764223698    1.8236227533   -1.8719795912
C   6   -0.1761061992   -0.3197526896    0.8347565871
C   6    0.5047029841   -1.4265218793    0.5049548638
H   1    1.1050511459   -1.4769395699   -0.4004159945
H   1    0.4776123000   -2.3115808875    1.1357801066
H   1   -0.7721922525   -0.2876834878    1.7465224690
 $end
