 $CONTRL SCFTYP=UHF RUNTYP=EDA dfttyp=B3LYP ispher=1 icharg=0 mult=1 $END
 $SYSTEM  mwords=150 memddi=150 $END
 $BASIS gbasis=accd $END
 $LMOEDA MATOM(1)=5 5 MCHARG(1)=0 0 MMULT(1)=2 -2 edatyp=gks $end
 $scf DIIS=.TRUE. ETHRSH=2.0 SWDIIS=0.005 $end
 $data
 EDA calculation with XEDA 1.0
 c1
C   6   -0.1859497267    0.8878627020   -1.3177375814
C   6   -0.1859497267    0.8878627020    0.0227624186
H   1   -0.1862648409    1.8272317774    0.5752564737
H   1   -0.1862839728   -0.0381976880   -1.8876944239
H   1   -0.1862658973    1.8192498334   -1.8785599699
C   6   -0.1859497267   -0.3241256095    0.8281762084
C   6    0.5329126827   -1.4139912144    0.5238110338
H   1    1.1667979965   -1.4495032870   -0.3591298201
H   1    0.5042976613   -2.2997229705    1.1536239242
H   1   -0.8153663425   -0.3068565853    1.7176707529
 $end
