 $CONTRL SCFTYP=UHF RUNTYP=EDA dfttyp=B3LYP ispher=1 icharg=0 mult=1 $END
 $SYSTEM  mwords=150 memddi=150 $END
 $BASIS gbasis=accd $END
 $LMOEDA MATOM(1)=5 5 MCHARG(1)=0 0 MMULT(1)=2 -2 edatyp=gks $end
 $scf DIIS=.TRUE. ETHRSH=2.0 SWDIIS=0.005 $end
 $data
 EDA calculation with XEDA 1.0
 c1
C   6   -0.1954392541    0.8832563003   -1.3246693041
C   6   -0.1954392541    0.8832563003    0.0158306959
H   1   -0.1957543683    1.8226253757    0.5683247511
H   1   -0.1957735002   -0.0428040897   -1.8946261466
H   1   -0.1957554247    1.8146434317   -1.8854916926
C   6   -0.1954392541   -0.3287320112    0.8212444857
C   6    0.5601079859   -1.4007914332    0.5436740915
H   1    1.2263238151   -1.4206024157   -0.3156397301
H   1    0.5300230976   -2.2872320977    1.1724202151
H   1   -0.8569883020   -0.3270537495    1.6872780189
 $end
