 $CONTRL SCFTYP=UHF RUNTYP=EDA dfttyp=B3LYP ispher=1 icharg=0 mult=1 $END
 $SYSTEM  mwords=150 memddi=150 $END
 $BASIS gbasis=accd $END
 $LMOEDA MATOM(1)=5 5 MCHARG(1)=0 0 MMULT(1)=2 -2 edatyp=gks $end
 $scf DIIS=.TRUE. ETHRSH=2.0 SWDIIS=0.005 $end
 $data
 EDA calculation with XEDA 1.0
 c1
C   6    0.0000022436    0.9348962852   -1.3503046224
C   6    0.0000022436    0.9348962852    0.0081210667
H   1    0.0000070619    1.9007627937    0.5271752761
H   1    0.0000052774    0.0145662386   -1.9415309290
H   1    0.0000093809    1.8669844540   -1.9195457536
C   6    0.0000022436   -0.2636923012    0.8969791198
C   6   -0.0000070997   -1.5635882383    0.5025340374
H   1   -0.0000174567   -1.8620919058   -0.5498212030
H   1   -0.0000095471   -2.3789592445    1.2291634851
H   1    0.0000096759   -0.0474458042    1.9719453808
 $end
