 $CONTRL SCFTYP=UHF RUNTYP=EDA dfttyp=B3LYP ispher=1 icharg=0 mult=1 $END
 $SYSTEM  mwords=150 memddi=150 $END
 $BASIS gbasis=accd $END
 $LMOEDA MATOM(1)=5 5 MCHARG(1)=0 0 MMULT(1)=2 -2 edatyp=gks $end
 $scf DIIS=.TRUE. ETHRSH=2.0 SWDIIS=0.005 $end
 $data
 EDA calculation with XEDA 1.0
 c1
C   6   -0.2043485821    0.8946438795   -1.3729278517
C   6   -0.2043485821    0.8946438795   -0.0164856868
H   1   -0.2256884526    1.8512538264    0.5202480986
H   1   -0.2262571852   -0.0357828137   -1.9478199803
H   1   -0.1912266330    1.8224525504   -1.9496464195
C   6   -0.2043485821   -0.3356262092    0.8294924550
C   6    0.5860060342   -1.4166946696    0.6136937945
H   1    1.3092161318   -1.4455188246   -0.2065581015
H   1    0.5411320444   -2.3009388441    1.2537724860
H   1   -0.8852186866   -0.3316242035    1.6897414596
 $end
