 $CONTRL SCFTYP=UHF RUNTYP=EDA dfttyp=B3LYP ispher=1 icharg=0 mult=1 $END
 $SYSTEM  mwords=150 memddi=150 $END
 $BASIS gbasis=accd $END
 $LMOEDA MATOM(1)=5 5 MCHARG(1)=0 0 MMULT(1)=2 -2 edatyp=gks $end
 $scf DIIS=.TRUE. ETHRSH=2.0 SWDIIS=0.005 $end
 $data
 EDA calculation with XEDA 1.0
 c1
C   6   -0.2132078952    0.8898619679   -1.3790284395
C   6   -0.2132078952    0.8898619679   -0.0227564766
H   1   -0.2390751237    1.8460276444    0.5146834705
H   1   -0.2305630336   -0.0409559422   -1.9534329655
H   1   -0.2028551969    1.8176102739   -1.9559743055
C   6   -0.2132078952   -0.3417802809    0.8219492695
C   6    0.6114573592   -1.4017587688    0.6326087371
H   1    1.3605667902   -1.4114884984   -0.1645148195
H   1    0.5684926513   -2.2874581812    1.2708705930
H   1   -0.9211944642   -0.3545825380    1.6600078805
 $end
