 $CONTRL SCFTYP=UHF RUNTYP=EDA dfttyp=B3LYP ispher=1 icharg=0 mult=1 $END
 $SYSTEM  mwords=150 memddi=150 $END
 $BASIS gbasis=accd $END
 $LMOEDA MATOM(1)=5 5 MCHARG(1)=0 0 MMULT(1)=2 -2 edatyp=gks $end
 $scf DIIS=.TRUE. ETHRSH=2.0 SWDIIS=0.005 $end
 $data
 EDA calculation with XEDA 1.0
 c1
C   6   -0.2216289344    0.8848406866   -1.3857728706
C   6   -0.2216289344    0.8848406866   -0.0296707591
H   1   -0.2518791146    1.8406115477    0.5083602870
H   1   -0.2343681731   -0.0462764897   -1.9597991292
H   1   -0.2141374057    1.8125565258   -1.9628893684
C   6   -0.2216289344   -0.3480022402    0.8141002073
C   6    0.6356752569   -1.3863181899    0.6530221832
H   1    1.4095809960   -1.3770727591   -0.1200455234
H   1    0.5944160028   -2.2730066136    1.2900895281
H   1   -0.9557954279   -0.3778489023    1.6289540546
 $end
