 $CONTRL SCFTYP=UHF RUNTYP=EDA dfttyp=B3LYP ispher=1 icharg=0 mult=1 $END
 $SYSTEM  mwords=150 memddi=150 $END
 $BASIS gbasis=accd $END
 $LMOEDA MATOM(1)=5 5 MCHARG(1)=0 0 MMULT(1)=2 -2 edatyp=gks $end
 $scf DIIS=.TRUE. ETHRSH=2.0 SWDIIS=0.005 $end
 $data
 EDA calculation with XEDA 1.0
 c1
C   6   -0.2295937408    0.8795922825   -1.3931201310
C   6   -0.2295937408    0.8795922825   -0.0371863555
H   1   -0.2640203304    1.8350194885    0.5013242152
H   1   -0.2377272680   -0.0517345057   -1.9668716946
H   1   -0.2250078564    1.8072997275   -1.9703540797
C   6   -0.2295937408   -0.3542911376    0.8059676328
C   6    0.6586078510   -1.3703933306    0.6748389330
H   1    1.4562289565   -1.3422326804   -0.0732490236
H   1    0.6187865270   -2.2576621346    1.3112562460
H   1   -0.9889908643   -0.4014766379    1.5965985442
 $end
