 $CONTRL SCFTYP=UHF RUNTYP=EDA dfttyp=B3LYP ispher=1 icharg=0 mult=1 $END
 $SYSTEM  mwords=150 memddi=150 $END
 $BASIS gbasis=accd $END
 $LMOEDA MATOM(1)=5 5 MCHARG(1)=0 0 MMULT(1)=2 -2 edatyp=gks $end
 $scf DIIS=.TRUE. ETHRSH=2.0 SWDIIS=0.005 $end
 $data
 EDA calculation with XEDA 1.0
 c1
C   6   -0.2370871273    0.8741300391   -1.4010217784
C   6   -0.2370871273    0.8741300391   -0.0452535784
H   1   -0.2754281575    1.8292657652    0.4936307332
H   1   -0.2406891273   -0.0573215819   -1.9745949793
H   1   -0.2354058493    1.8018493979   -1.9783243883
C   6   -0.2370871273   -0.3606489876    0.7975736008
C   6    0.6802101079   -1.3540033747    0.6979503941
H   1    1.5004702131   -1.3069162664   -0.0242398660
H   1    0.6415139510   -2.2415095256    1.3341716965
H   1   -1.0207388296   -0.4255291048    1.5629617078
 $end
