 $CONTRL SCFTYP=UHF RUNTYP=EDA dfttyp=B3LYP ispher=1 icharg=0 mult=1 $END
 $SYSTEM  mwords=150 memddi=150 $END
 $BASIS gbasis=accd $END
 $LMOEDA MATOM(1)=5 5 MCHARG(1)=0 0 MMULT(1)=2 -2 edatyp=gks $end
 $scf DIIS=.TRUE. ETHRSH=2.0 SWDIIS=0.005 $end
 $data
 EDA calculation with XEDA 1.0
 c1
C   6   -0.2506120865    0.8626216922   -1.4182692364
C   6   -0.2506120865    0.8626216922   -0.0628189604
H   1   -0.2958033968    1.8173315280    0.4765272241
H   1   -0.2455930315   -0.0688544549   -1.9917411212
H   1   -0.2545624303    1.7904119582   -1.9955833411
C   6   -0.2506120865   -0.3735888292    0.7800855620
C   6    0.7192758828   -1.3199036671    0.7475801384
H   1    1.5815260679   -1.2346142357    0.0799017793
H   1    0.6817984673   -2.2071427598    1.3843709037
H   1   -1.0796748498   -0.4751844203    1.4919341994
 $end
