 $CONTRL SCFTYP=UHF RUNTYP=EDA dfttyp=B3LYP ispher=1 icharg=0 mult=1 $END
 $SYSTEM  mwords=150 memddi=150 $END
 $BASIS gbasis=accd $END
 $LMOEDA MATOM(1)=5 5 MCHARG(1)=0 0 MMULT(1)=2 -2 edatyp=gks $end
 $scf DIIS=.TRUE. ETHRSH=2.0 SWDIIS=0.005 $end
 $data
 EDA calculation with XEDA 1.0
 c1
C   6   -0.2716067524    0.8377103975   -1.4569169832
C   6   -0.2716067524    0.8377103975   -0.1020187620
H   1   -0.3254592174    1.7921666769    0.4373798978
H   1   -0.2523946358   -0.0931774632   -2.0309565521
H   1   -0.2849679891    1.7657553155   -2.0339081687
C   6   -0.2716067524   -0.4005002531    0.7428368930
C   6    0.7801242285   -1.2470124867    0.8570115072
H   1    1.7121345426   -1.0817443477    0.3088448872
H   1    0.7411565774   -2.1328065735    1.4959279254
H   1   -1.1773496084   -0.5824900413    1.3355720369
 $end
