 $CONTRL SCFTYP=UHF RUNTYP=EDA dfttyp=B3LYP ispher=1 icharg=0 mult=1 $END
 $SYSTEM  mwords=150 memddi=150 $END
 $BASIS gbasis=accd $END
 $LMOEDA MATOM(1)=5 5 MCHARG(1)=0 0 MMULT(1)=2 -2 edatyp=gks $end
 $scf DIIS=.TRUE. ETHRSH=2.0 SWDIIS=0.005 $end
 $data
 EDA calculation with XEDA 1.0
 c1
C   6   -0.2843615612    0.8111539429   -1.4982513833
C   6   -0.2843615612    0.8111539429   -0.1437497415
H   1   -0.3383140450    1.7660401043    0.3950628041
H   1   -0.2571419880   -0.1188213633   -2.0734474368
H   1   -0.3027900766    1.7395203555   -2.0747335175
C   6   -0.2843615612   -0.4288637779    0.7033869062
C   6    0.8171097409   -1.1692787244    0.9739976027
H   1    1.7967090408   -0.9161049608    0.5583846468
H   1    0.7734537111   -2.0557811179    1.6117611493
H   1   -1.2435691622   -0.7025860994    1.1616684611
 $end
