 $CONTRL SCFTYP=UHF RUNTYP=EDA dfttyp=B3LYP ispher=1 icharg=0 mult=1 $END
 $SYSTEM  mwords=150 memddi=150 $END
 $BASIS gbasis=accd $END
 $LMOEDA MATOM(1)=5 5 MCHARG(1)=0 0 MMULT(1)=2 -2 edatyp=gks $end
 $scf DIIS=.TRUE. ETHRSH=2.0 SWDIIS=0.005 $end
 $data
 EDA calculation with XEDA 1.0
 c1
C   6   -0.2888652795    0.7839457144   -1.5396718712
C   6   -0.2888652795    0.7839457144   -0.1853826940
H   1   -0.3322579499    1.7397073801    0.3526990547
H   1   -0.2622208628   -0.1453026868   -2.1162148816
H   1   -0.3062307140    1.7126502258   -2.1156814905
C   6   -0.2888652795   -0.4582845787    0.6625404545
C   6    0.8297304332   -1.0888414381    1.0929467652
H   1    1.8297633562   -0.7383560713    0.8214539647
H   1    0.7819883232   -1.9807214754    1.7229075716
H   1   -1.2720920865   -0.8352275770    0.9724793789
 $end
