 $CONTRL SCFTYP=UHF RUNTYP=EDA dfttyp=B3LYP ispher=1 icharg=0 mult=1 $END
 $SYSTEM  mwords=150 memddi=150 $END
 $BASIS gbasis=accd $END
 $LMOEDA MATOM(1)=5 5 MCHARG(1)=0 0 MMULT(1)=2 -2 edatyp=gks $end
 $scf DIIS=.TRUE. ETHRSH=2.0 SWDIIS=0.005 $end
 $data
 EDA calculation with XEDA 1.0
 c1
C   6   -0.2851688285    0.7568153819   -1.5796586004
C   6   -0.2851688285    0.7568153819   -0.2253689998
H   1   -0.3057454653    1.7134407624    0.3121326953
H   1   -0.2697673344   -0.1721103862   -2.1574234549
H   1   -0.2939986147    1.6857675793   -2.1553599344
C   6   -0.2851688285   -0.4877309815    0.6210794983
C   6    0.8177039828   -1.0080788470    1.2101629633
H   1    1.8052960333   -0.5524096826    1.0919227446
H   1    0.7705667794   -1.9105055782    1.8248706448
H   1   -1.2562434750   -0.9763735174    0.7717214405
 $end
