 $CONTRL SCFTYP=UHF RUNTYP=EDA dfttyp=B3LYP ispher=1 icharg=0 mult=1 $END
 $SYSTEM  mwords=150 memddi=150 $END
 $BASIS gbasis=accd $END
 $LMOEDA MATOM(1)=5 5 MCHARG(1)=0 0 MMULT(1)=2 -2 edatyp=gks $end
 $scf DIIS=.TRUE. ETHRSH=2.0 SWDIIS=0.005 $end
 $data
 EDA calculation with XEDA 1.0
 c1
C   6   -0.0490581064    0.9332005050   -1.3488053114
C   6   -0.0490581064    0.9332005050    0.0094731885
H   1   -0.0359113813    1.8980841780    0.5302743579
H   1   -0.0779897404    0.0121384423   -1.9381887489
H   1   -0.0322385640    1.8646323871   -1.9188956645
C   6   -0.0490581064   -0.2685116782    0.8937908330
C   6    0.1409123412   -1.5554691312    0.5031902256
H   1    0.3466316907   -1.8320524381   -0.5349558102
H   1    0.1082203550   -2.3793649793    1.2194134078
H   1   -0.2341520614   -0.0685276516    1.9559364568
 $end
