 $CONTRL SCFTYP=UHF RUNTYP=EDA dfttyp=B3LYP ispher=1 icharg=0 mult=1 $END
 $SYSTEM  mwords=150 memddi=150 $END
 $BASIS gbasis=accd $END
 $LMOEDA MATOM(1)=5 5 MCHARG(1)=0 0 MMULT(1)=2 -2 edatyp=gks $end
 $scf DIIS=.TRUE. ETHRSH=2.0 SWDIIS=0.005 $end
 $data
 EDA calculation with XEDA 1.0
 c1
C   6   -0.2733198870    0.7301959129   -1.6174692125
C   6   -0.2733198870    0.7301959129   -0.2629423813
H   1   -0.2604375051    1.6867982962    0.2743883866
H   1   -0.2794337772   -0.1985288973   -2.1961124777
H   1   -0.2660962487    1.6590353043   -2.1931414957
C   6   -0.2733198870   -0.5157839925    0.5799646240
C   6    0.7809928500   -0.9293365378    1.3230337115
H   1    1.7182406046   -0.3658828174    1.3615478077
H   1    0.7425187762   -1.8458065748    1.9169983794
H   1   -1.1908207080   -1.1174480085    0.5673829368
 $end
