 $CONTRL SCFTYP=UHF RUNTYP=EDA dfttyp=B3LYP ispher=1 icharg=0 mult=1 $END
 $SYSTEM  mwords=150 memddi=150 $END
 $BASIS gbasis=accd $END
 $LMOEDA MATOM(1)=5 5 MCHARG(1)=0 0 MMULT(1)=2 -2 edatyp=gks $end
 $scf DIIS=.TRUE. ETHRSH=2.0 SWDIIS=0.005 $end
 $data
 EDA calculation with XEDA 1.0
 c1
C   6   -0.2534504763    0.7045553661   -1.6524134473
C   6   -0.2534504763    0.7045553661   -0.2973679210
H   1   -0.2018818024    1.6593477533    0.2404290103
H   1   -0.2884884910   -0.2235968238   -2.2312403605
H   1   -0.2260723582    1.6323884459   -2.2287967099
C   6   -0.2534504763   -0.5412717450    0.5402398412
C   6    0.7204170706   -0.8549734632    1.4286784858
H   1    1.5673779470   -0.1883638167    1.6184779037
H   1    0.7000592553   -1.7850797497    2.0016784975
H   1   -1.0755029870   -1.2478834000    0.3715911691
 $end
