 $CONTRL SCFTYP=UHF RUNTYP=EDA dfttyp=B3LYP ispher=1 icharg=0 mult=1 $END
 $SYSTEM  mwords=150 memddi=150 $END
 $BASIS gbasis=accd $END
 $LMOEDA MATOM(1)=5 5 MCHARG(1)=0 0 MMULT(1)=2 -2 edatyp=gks $end
 $scf DIIS=.TRUE. ETHRSH=2.0 SWDIIS=0.005 $end
 $data
 EDA calculation with XEDA 1.0
 c1
C   6   -0.2255540375    0.6799587241   -1.6851009426
C   6   -0.2255540375    0.6799587241   -0.3293338596
H   1   -0.1455723166    1.6325690130    0.2090551789
H   1   -0.2818027082   -0.2474099567   -2.2638379172
H   1   -0.1803974373    1.6066792935   -2.2618057351
C   6   -0.2255540375   -0.5628385165    0.5040394665
C   6    0.6370681467   -0.7868054776    1.5257212571
H   1    1.3647673754   -0.0337817808    1.8443476899
H   1    0.6376083111   -1.7253336210    2.0848287455
H   1   -0.9231646572   -1.3550472061    0.2049289178
 $end
