 $CONTRL SCFTYP=UHF RUNTYP=EDA dfttyp=B3LYP ispher=1 icharg=0 mult=1 $END
 $SYSTEM  mwords=150 memddi=150 $END
 $BASIS gbasis=accd $END
 $LMOEDA MATOM(1)=5 5 MCHARG(1)=0 0 MMULT(1)=2 -2 edatyp=gks $end
 $scf DIIS=.TRUE. ETHRSH=2.0 SWDIIS=0.005 $end
 $data
 EDA calculation with XEDA 1.0
 c1
C   6   -0.1901122546    0.6576253597   -1.7143537692
C   6   -0.1901122546    0.6576253597   -0.3577781985
H   1   -0.1002778601    1.6090605793    0.1814237736
H   1   -0.2554533347   -0.2696324340   -2.2923867250
H   1   -0.1382590379    1.5833293720   -2.2917681423
C   6   -0.1901122546   -0.5805901914    0.4727050675
C   6    0.5341079050   -0.7273269814    1.6103700461
H   1    1.1246143204    0.0935119398    2.0295668230
H   1    0.5506032907   -1.6668180654    2.1672411428
H   1   -0.7498565625   -1.4367706742    0.0756249647
 $end
