 $CONTRL SCFTYP=UHF RUNTYP=EDA dfttyp=B3LYP ispher=1 icharg=0 mult=1 $END
 $SYSTEM  mwords=150 memddi=150 $END
 $BASIS gbasis=accd $END
 $LMOEDA MATOM(1)=5 5 MCHARG(1)=0 0 MMULT(1)=2 -2 edatyp=gks $end
 $scf DIIS=.TRUE. ETHRSH=2.0 SWDIIS=0.005 $end
 $data
 EDA calculation with XEDA 1.0
 c1
C   6   -0.1482814409    0.6389116255   -1.7388676943
C   6   -0.1482814409    0.6389116255   -0.3815976464
H   1   -0.0668942076    1.5907651539    0.1585217663
H   1   -0.2086608169   -0.2891314339   -2.3161951569
H   1   -0.1005939806    1.5642735717   -2.3169220246
C   6   -0.1482814409   -0.5946532370    0.4475417488
C   6    0.4149850812   -0.6787212319    1.6795560313
H   1    0.8611077918    0.1917381243    2.1709760490
H   1    0.4380473896   -1.6145741837    2.2420149499
H   1   -0.5674773047   -1.4960421189   -0.0173669027
 $end
