 $CONTRL SCFTYP=UHF RUNTYP=EDA dfttyp=B3LYP ispher=1 icharg=0 mult=1 $END
 $SYSTEM  mwords=150 memddi=150 $END
 $BASIS gbasis=accd $END
 $LMOEDA MATOM(1)=5 5 MCHARG(1)=0 0 MMULT(1)=2 -2 edatyp=gks $end
 $scf DIIS=.TRUE. ETHRSH=2.0 SWDIIS=0.005 $end
 $data
 EDA calculation with XEDA 1.0
 c1
C   6   -0.1015786723    0.6248740858   -1.7573004919
C   6   -0.1015786723    0.6248740858   -0.3995133479
H   1   -0.0411977993    1.5779843488    0.1414279442
H   1   -0.1468999811   -0.3043623372   -2.3341085317
H   1   -0.0658434778    1.5503605201   -2.3358760545
C   6   -0.1015786723   -0.6049371594    0.4292136880
C   6    0.2835629341   -0.6427410149    1.7306889438
H   1    0.5821698164    0.2616261781    2.2703177145
H   1    0.3043521750   -1.5737040626    2.3011482802
H   1   -0.3804764620   -1.5365517506   -0.0796870708
 $end
