 $CONTRL SCFTYP=UHF RUNTYP=EDA dfttyp=B3LYP ispher=1 icharg=0 mult=1 $END
 $SYSTEM  mwords=150 memddi=150 $END
 $BASIS gbasis=accd $END
 $LMOEDA MATOM(1)=5 5 MCHARG(1)=0 0 MMULT(1)=2 -2 edatyp=gks $end
 $scf DIIS=.TRUE. ETHRSH=2.0 SWDIIS=0.005 $end
 $data
 EDA calculation with XEDA 1.0
 c1
C   6   -0.0515800974    0.6161071667   -1.7691615851
C   6   -0.0515800974    0.6161071667   -0.4109092358
H   1   -0.0199240565    1.5707696211    0.1304243333
H   1   -0.0758412292   -0.3142543354   -2.3455892237
H   1   -0.0329426250    1.5422466674   -2.3473040763
C   6   -0.0515800974   -0.6112959946    0.4183738549
C   6    0.1438962312   -0.6204358210    1.7624659817
H   1    0.2933769394    0.3040624311    2.3293857241
H   1    0.1555225018   -1.5477850325    2.3388402712
H   1   -0.1910731539   -1.5607846086   -0.1149135665
 $end
