 $CONTRL SCFTYP=UHF RUNTYP=EDA dfttyp=B3LYP ispher=1 icharg=0 mult=1 $END
 $SYSTEM  mwords=150 memddi=150 $END
 $BASIS gbasis=accd $END
 $LMOEDA MATOM(1)=5 5 MCHARG(1)=0 0 MMULT(1)=2 -2 edatyp=gks $end
 $scf DIIS=.TRUE. ETHRSH=2.0 SWDIIS=0.005 $end
 $data
 EDA calculation with XEDA 1.0
 c1
C   6    0.0000014281    0.6131488601   -1.7730179283
C   6    0.0000014281    0.6131488601   -0.4146350824
H   1   -0.0000228943    1.5682484418    0.1268929817
H   1   -0.0000192056   -0.3175728774   -2.3493706113
H   1   -0.0000442868    1.5393679427   -2.3513191720
C   6    0.0000014281   -0.6133820999    0.4146212475
C   6    0.0000039776   -0.6129628337    1.7730147290
H   1   -0.0000120768    0.3180185738    2.3489572489
H   1   -0.0000021602   -1.5389162941    2.3517314220
H   1    0.0000022523   -1.5685836242   -0.1266890460
 $end
