 $CONTRL SCFTYP=UHF RUNTYP=EDA dfttyp=B3LYP ispher=1 icharg=0 mult=1 $END
 $SYSTEM  mwords=150 memddi=150 $END
 $BASIS gbasis=accd $END
 $LMOEDA MATOM(1)=5 5 MCHARG(1)=0 0 MMULT(1)=2 -2 edatyp=gks $end
 $scf DIIS=.TRUE. ETHRSH=2.0 SWDIIS=0.005 $end
 $data
 EDA calculation with XEDA 1.0
 c1
C   6   -0.0972232799    0.9274942884   -1.3485493676
C   6   -0.0972232799    0.9274942884    0.0094678526
H   1   -0.0827557440    1.8904441815    0.5342070172
H   1   -0.1409507652    0.0043431674   -1.9337548992
H   1   -0.0720830051    1.8578711160   -1.9201713948
C   6   -0.0972232799   -0.2811162498    0.8839505267
C   6    0.2790931534   -1.5320849808    0.5129046156
H   1    0.6673995219   -1.7544271701   -0.4852789820
H   1    0.2274042611   -2.3740354359    1.2067537579
H   1   -0.4492658207   -0.1217506326    1.9103438195
 $end
