 $CONTRL SCFTYP=UHF RUNTYP=EDA dfttyp=B3LYP ispher=1 icharg=0 mult=1 $END
 $SYSTEM  mwords=150 memddi=150 $END
 $BASIS gbasis=accd $END
 $LMOEDA MATOM(1)=5 5 MCHARG(1)=0 0 MMULT(1)=2 -2 edatyp=gks $end
 $scf DIIS=.TRUE. ETHRSH=2.0 SWDIIS=0.005 $end
 $data
 EDA calculation with XEDA 1.0
 c1
C   6   -0.1433151751    0.9177713962   -1.3508297161
C   6   -0.1433151751    0.9177713962    0.0065985363
H   1   -0.1386922162    1.8779101547    0.5368603259
H   1   -0.1862393786   -0.0086464403   -1.9309720120
H   1   -0.1182707106    1.8466936655   -1.9249747509
C   6   -0.1433151751   -0.3007109753    0.8671638884
C   6    0.4110957020   -1.4942713944    0.5345140710
H   1    0.9524046187   -1.6408021426   -0.4047273030
H   1    0.3560446709   -2.3584408587    1.2003536255
H   1   -0.6408053682   -0.1996603847    1.8394511518
 $end
