 $CONTRL SCFTYP=UHF RUNTYP=EDA dfttyp=B3LYP ispher=1 icharg=0 mult=1 $END
 $SYSTEM  mwords=150 memddi=150 $END
 $BASIS gbasis=accd $END
 $LMOEDA MATOM(1)=5 5 MCHARG(1)=0 0 MMULT(1)=2 -2 edatyp=gks $end
 $scf DIIS=.TRUE. ETHRSH=2.0 SWDIIS=0.005 $end
 $data
 EDA calculation with XEDA 1.0
 c1
C   6   -0.1542897927    0.9146193721   -1.3527921875
C   6   -0.1542897927    0.9146193721    0.0044804831
H   1   -0.1534367114    1.8740793385    0.5360657795
H   1   -0.1949217768   -0.0126115373   -1.9318183527
H   1   -0.1304509410    1.8432595714   -1.9274986870
C   6   -0.1542897927   -0.3062040091    0.8618804312
C   6    0.4425182452   -1.4829281512    0.5435537179
H   1    1.0176932552   -1.6096542164   -0.3782906601
H   1    0.3884363382   -2.3517919329    1.2033832319
H   1   -0.6850027109   -0.2208234467    1.8180115258
 $end
