 $CONTRL SCFTYP=UHF RUNTYP=EDA dfttyp=B3LYP ispher=1 icharg=0 mult=1 $END
 $SYSTEM  mwords=150 memddi=150 $END
 $BASIS gbasis=accd $END
 $LMOEDA MATOM(1)=5 5 MCHARG(1)=0 0 MMULT(1)=2 -2 edatyp=gks $end
 $scf DIIS=.TRUE. ETHRSH=2.0 SWDIIS=0.005 $end
 $data
 EDA calculation with XEDA 1.0
 c1
C   6   -0.1649769194    0.9111723684   -1.3554453086
C   6   -0.1649769194    0.9111723684    0.0016526713
H   1   -0.1682625104    1.8699797866    0.5344777461
H   1   -0.2027225334   -0.0168291660   -1.9334572713
H   1   -0.1427316532    1.8395722925   -1.9306707128
C   6   -0.1649769194   -0.3118490695    0.8561739923
C   6    0.4731247819   -1.4709056791    0.5542959457
H   1    1.0806576681   -1.5778674328   -0.3491287831
H   1    0.4204630095   -2.3439222213    1.2087962957
H   1   -0.7277639577   -0.2423244655    1.7951358159
 $end
