 $CONTRL SCFTYP=UHF RUNTYP=EDA dfttyp=B3LYP ispher=1 icharg=0 mult=1 $END
 $SYSTEM  mwords=150 memddi=150 $END
 $BASIS gbasis=accd $END
 $LMOEDA MATOM(1)=5 5 MCHARG(1)=0 0 MMULT(1)=2 -2 edatyp=gks $end
 $scf DIIS=.TRUE. ETHRSH=2.0 SWDIIS=0.005 $end
 $data
 EDA calculation with XEDA 1.0
 c1
C   6   -0.1753573891    0.9074460660   -1.3587653697
C   6   -0.1753573891    0.9074460660   -0.0018287399
H   1   -0.1830010833    1.8656443603    0.5321329798
H   1   -0.2096824578   -0.0212742642   -1.9358390528
H   1   -0.1550182156    1.8356439660   -1.9344475585
C   6   -0.1753573891   -0.3176370880    0.8500664479
C   6    0.5028615719   -1.4582389582    0.5666496125
H   1    1.1412749135   -1.5454425153   -0.3173986715
H   1    0.4519522693   -2.3348928550    1.2164632027
H   1   -0.7691608442   -0.2642365423    1.7708546470
 $end
