 $CONTRL SCFTYP=UHF RUNTYP=EDA dfttyp=B3LYP ispher=1 icharg=0 mult=1 $END
 $SYSTEM  mwords=150 memddi=150 $END
 $BASIS gbasis=accd $END
 $LMOEDA MATOM(1)=5 5 MCHARG(1)=0 0 MMULT(1)=2 -2 edatyp=gks $end
 $scf DIIS=.TRUE. ETHRSH=2.0 SWDIIS=0.005 $end
 $data
 EDA calculation with XEDA 1.0
 c1
C   6   -0.1853959278    0.9034410188   -1.3627982960
C   6   -0.1853959278    0.9034410188   -0.0060262206
H   1   -0.1975634986    1.8610756407    0.5289564967
H   1   -0.2158725285   -0.0259336816   -1.9390324683
H   1   -0.1672525215    1.8314747273   -1.9388827550
C   6   -0.1853959278   -0.3235341392    0.8435708766
C   6    0.5316329011   -1.4449629050    0.5807026063
H   1    1.1995642615   -1.5125546379   -0.2830187240
H   1    0.4826826761   -2.3246827163    1.2265684326
H   1   -0.8091876100   -0.2864228727    1.7451876749
 $end
