 $CONTRL SCFTYP=UHF RUNTYP=EDA dfttyp=B3LYP ispher=1 icharg=0 mult=1 $END
 $SYSTEM  mwords=150 memddi=150 $END
 $BASIS gbasis=accd $END
 $LMOEDA MATOM(1)=5 5 MCHARG(1)=0 0 MMULT(1)=2 -2 edatyp=gks $end
 $scf DIIS=.TRUE. ETHRSH=2.0 SWDIIS=0.005 $end
 $data
 EDA calculation with XEDA 1.0
 c1
C   6   -0.1950671090    0.8991695766   -1.3675260072
C   6   -0.1950671090    0.8991695766   -0.0109205169
H   1   -0.2118364404    1.8562704594    0.5249959887
H   1   -0.2213659981   -0.0307749218   -1.9430438213
H   1   -0.1793594870    1.8270764098   -1.9439547755
C   6   -0.1950671090   -0.3295331189    0.8367054746
C   6    0.5593688228   -1.4311058128    0.5964040384
H   1    1.2555441986   -1.4792565556   -0.2460529867
H   1    0.5124705051   -2.3133399779    1.2390456411
H   1   -0.8478695762   -0.3088654933    1.7181471099
 $end
